NAME : amtsp
TYPE : ATSP
DIMENSION : 6
EDGE_WEIGHT_TYPE : EXPLICIT
EDGE_WEIGHT_FORMAT : FULL_MATRIX
EDGE_WEIGHT_SECTION
100000 -100000 100000 100000 100000 100000 
100000 100000 697 457 590 100000 
0 0 100000 454 291 240 
0 0 454 100000 338 540 
0 0 291 338 100000 444 
-100000 100000 240 540 444 100000 
